data/solutions/recovery/degenerate/moderate/flexible/degenerate_moderate_instance20/23.sol
Elapsed time: 3.47
Upper bound: 154438583.0
Planning weighted value: 2254392450.0
C[0]=154438583.0
C[1]=154428109.0
C[2]=154335067.0
C[3]=153748107.0
y[0]=2
y[1]=3
y[2]=3
y[3]=3
y[4]=1
y[5]=2
y[6]=0
y[7]=1
y[8]=2
y[9]=0
y[10]=3
y[11]=0
y[12]=0
y[13]=1
y[14]=3
y[15]=2
y[16]=3
y[17]=1
y[18]=0
y[19]=1
y[20]=1
y[21]=2
y[22]=1
y[23]=2
y[24]=2
y[25]=2
y[26]=2
y[27]=0
y[28]=3
y[29]=0
y[30]=3
y[31]=3
y[32]=1
y[33]=1
y[34]=3
y[35]=0
